\* MBVST_Original_Lazy *\
Minimize
MinBranchVertices: y_1 + y_10 + y_11 + y_12 + y_13 + y_14 + y_15 + y_16 + y_17
 + y_18 + y_19 + y_2 + y_20 + y_3 + y_4 + y_5 + y_6 + y_7 + y_8 + y_9
Subject To
BranchDef_1: x_('1',_'19') + x_('1',_'9') - 2 y_1 <= 2
BranchDef_10: x_('10',_'15') + x_('6',_'10') - 2 y_10 <= 2
BranchDef_11: x_('11',_'12') - y_11 <= 2
BranchDef_12: x_('11',_'12') + x_('12',_'17') + x_('12',_'9') + x_('2',_'12')
 + x_('3',_'12') + x_('7',_'12') - 6 y_12 <= 2
BranchDef_13: x_('4',_'13') + x_('8',_'13') - 2 y_13 <= 2
BranchDef_14: x_('14',_'20') - y_14 <= 2
BranchDef_15: x_('10',_'15') + x_('4',_'15') - 2 y_15 <= 2
BranchDef_16: x_('5',_'16') - y_16 <= 2
BranchDef_17: x_('12',_'17') - y_17 <= 2
BranchDef_18: x_('18',_'20') + x_('7',_'18') - 2 y_18 <= 2
BranchDef_19: x_('1',_'19') + x_('8',_'19') - 2 y_19 <= 2
BranchDef_2: x_('2',_'12') - y_2 <= 2
BranchDef_20: x_('14',_'20') + x_('18',_'20') - 2 y_20 <= 2
BranchDef_3: x_('3',_'12') - y_3 <= 2
BranchDef_4: x_('4',_'13') + x_('4',_'15') - 2 y_4 <= 2
BranchDef_5: x_('5',_'16') + x_('5',_'9') - 2 y_5 <= 2
BranchDef_6: x_('6',_'10') - y_6 <= 2
BranchDef_7: x_('7',_'12') + x_('7',_'18') - 2 y_7 <= 2
BranchDef_8: x_('8',_'13') + x_('8',_'19') - 2 y_8 <= 2
BranchDef_9: x_('1',_'9') + x_('12',_'9') + x_('5',_'9') - 3 y_9 <= 2
TreeEdgeCount: x_('1',_'19') + x_('1',_'9') + x_('10',_'15') + x_('11',_'12')
 + x_('12',_'17') + x_('12',_'9') + x_('14',_'20') + x_('18',_'20')
 + x_('2',_'12') + x_('3',_'12') + x_('4',_'13') + x_('4',_'15')
 + x_('5',_'16') + x_('5',_'9') + x_('6',_'10') + x_('7',_'12')
 + x_('7',_'18') + x_('8',_'13') + x_('8',_'19') = 19
Binaries
x_('1',_'19')
x_('1',_'9')
x_('10',_'15')
x_('11',_'12')
x_('12',_'17')
x_('12',_'9')
x_('14',_'20')
x_('18',_'20')
x_('2',_'12')
x_('3',_'12')
x_('4',_'13')
x_('4',_'15')
x_('5',_'16')
x_('5',_'9')
x_('6',_'10')
x_('7',_'12')
x_('7',_'18')
x_('8',_'13')
x_('8',_'19')
y_1
y_10
y_11
y_12
y_13
y_14
y_15
y_16
y_17
y_18
y_19
y_2
y_20
y_3
y_4
y_5
y_6
y_7
y_8
y_9
End
